
Gurobi 10.0.0 (linux64) logging started Sat Nov 26 14:09:45 2022

Set parameter LogFile to value "../results/k03_n050_d030/k03_n050_d049_R50_5g_A-MILO_log.txt"
Gurobi Optimizer version 10.0.0 build v10.0.0rc2 (linux64)

CPU model: Intel(R) Xeon(R) CPU E5-2630 v4 @ 2.20GHz, instruction set [SSE2|AVX|AVX2]
Thread count: 20 physical cores, 40 logical processors, using up to 10 threads

Optimize a model with 5558 rows, 762 columns and 16674 nonzeros
Model fingerprint: 0x24cac1dc
Coefficient statistics:
  Matrix range     [1e+00, 1e+00]
  Objective range  [1e+00, 1e+00]
  Bounds range     [1e+00, 1e+00]
  RHS range        [1e+00, 2e+00]
Presolve removed 169 rows and 27 columns
Presolve time: 0.02s
Presolved: 735 rows, 6172 columns, 16950 nonzeros

Iteration    Objective       Primal Inf.    Dual Inf.      Time
       0      handle free variables                          0s
Extra simplex iterations after uncrush: 2
    2701    6.1200000e+02   0.000000e+00   0.000000e+00      0s

Solved in 2701 iterations and 0.08 seconds (0.07 work units)
Optimal objective  6.120000000e+02
